unsat
(:max-memory         18.06
 :memory             18.06
 :nlsat-conflicts    2
 :nlsat-propagations 7
 :nlsat-stages       2
 :num-allocs         22381
 :rlimit-count       3103
 :time               0.00
 :total-time         0.01)
